\ENCODING=ISO-8859-1
\Problem name: 

Minimize
 obj: 0.000001 a0_0 + 0.000001 a0_1 + 0.000001 a0_2 + 0.000001 a0_3
      + 0.000001 a0_4 + 0.000001 a0_5 + 0.000001 a0_6 + 0.000001 a0_7
      + 0.000001 a0_8 + 0.000001 a0_9 + 0.000001 a0_10 + 0.000001 a0_11
      + 0.000001 a0_12 + 0.000001 a0_13 + 0.000001 a0_14 + 0.000001 a0_15
      + 0.000001 a0_16 + 0.000001 a0_17 + 0.000001 a0_18 + 0.000001 a0_19
      + 0.000001 a0_20 + 0.000001 a0_21 + 0.000001 a0_22 + 0.000001 a0_23
      + 0.000001 a0_24 + 0.000001 a0_25 + 0.000001 a0_26 + 0.000001 a0_27
      + 0.000001 a0_28 + 0.000001 a0_29 + 0.000001 a1_0 + 0.000001 a1_1
      + 0.000001 a1_2 + 0.000001 a1_3 + 0.000001 a1_4 + 0.000001 a1_5
      + 0.000001 a1_6 + 0.000001 a1_7 + 0.000001 a1_8 + 0.000001 a1_9
      + 0.000001 a1_10 + 0.000001 a1_11 + 0.000001 a1_12 + 0.000001 a1_13
      + 0.000001 a1_14 + 0.000001 a1_15 + 0.000001 a1_16 + 0.000001 a1_17
      + 0.000001 a1_18 + 0.000001 a1_19 + 0.000001 a1_20 + 0.000001 a1_21
      + 0.000001 a1_22 + 0.000001 a1_23 + 0.000001 a1_24 + 0.000001 a1_25
      + 0.000001 a1_26 + 0.000001 a1_27 + 0.000001 a1_28 + 0.000001 a1_29
      + 0.000001 a2_0 + 0.000001 a2_1 + 0.000001 a2_2 + 0.000001 a2_3
      + 0.000001 a2_4 + 0.000001 a2_5 + 0.000001 a2_6 + 0.000001 a2_7
      + 0.000001 a2_8 + 0.000001 a2_9 + 0.000001 a2_10 + 0.000001 a2_11
      + 0.000001 a2_12 + 0.000001 a2_13 + 0.000001 a2_14 + 0.000001 a2_15
      + 0.000001 a2_16 + 0.000001 a2_17 + 0.000001 a2_18 + 0.000001 a2_19
      + 0.000001 a2_20 + 0.000001 a2_21 + 0.000001 a2_22 + 0.000001 a2_23
      + 0.000001 a2_24 + 0.000001 a2_25 + 0.000001 a2_26 + 0.000001 a2_27
      + 0.000001 a2_28 + 0.000001 a2_29 + Performance
Subject To
 c1:  897 a0_0 + 17916 a1_0 + 9228 a2_0 - 65567.5 Performance <= -359
 c2:  897 a0_1 + 17916 a1_1 + 9228 a2_1 - 65567.5 Performance <= -782
 c3:  897 a0_2 + 17916 a1_2 + 9228 a2_2 - 65567.5 Performance <= -53420
 c4:  897 a0_3 + 17916 a1_3 + 9228 a2_3 - 16391.875 Performance <= -8133
 c5:  897 a0_4 + 17916 a1_4 + 9228 a2_4 - 65567.5 Performance <= -28724
 c6:  897 a0_5 + 17916 a1_5 + 9228 a2_5 - 65567.5 Performance <= -55798
 c7:  897 a0_6 + 17916 a1_6 + 9228 a2_6 - 65567.5 Performance <= -12123
 c8:  897 a0_7 + 17916 a1_7 + 9228 a2_7 - 65567.5 Performance <= -28185
 c9:  897 a0_8 + 17916 a1_8 + 9228 a2_8 - 65567.5 Performance <= -3566
 c10: 897 a0_9 + 17916 a1_9 + 9228 a2_9 - 65567.5 Performance <= -13047
 c11: 897 a0_10 + 17916 a1_10 + 9228 a2_10 - 65567.5 Performance <= -30323
 c12: 897 a0_11 + 17916 a1_11 + 9228 a2_11 - 65567.5 Performance <= -15088
 c13: 897 a0_12 + 17916 a1_12 + 9228 a2_12 - 65567.5 Performance <= -53418
 c14: 897 a0_13 + 17916 a1_13 + 9228 a2_13 - 16391.875 Performance <= -12987
 c15: 897 a0_14 + 17916 a1_14 + 9228 a2_14 - 65567.5 Performance <= -39606
 c16: 897 a0_15 + 17916 a1_15 + 9228 a2_15 - 65567.5 Performance <= -46007
 c17: 897 a0_16 + 17916 a1_16 + 9228 a2_16 - 65567.5 Performance <= -29292
 c18: 897 a0_17 + 17916 a1_17 + 9228 a2_17 - 65567.5 Performance <= -26962
 c19: 897 a0_18 + 17916 a1_18 + 9228 a2_18 - 65567.5 Performance <= -33638
 c20: 897 a0_19 + 17916 a1_19 + 9228 a2_19 - 65567.5 Performance <= -32854
 c21: 897 a0_20 + 17916 a1_20 + 9228 a2_20 - 65567.5 Performance <= -14597
 c22: 897 a0_21 + 17916 a1_21 + 9228 a2_21 - 65567.5 Performance <= -45581
 c23: 897 a0_22 + 17916 a1_22 + 9228 a2_22 - 65567.5 Performance <= -10931
 c24: 897 a0_23 + 17916 a1_23 + 9228 a2_23 - 65567.5 Performance <= -5753
 c25: 897 a0_24 + 17916 a1_24 + 9228 a2_24 - 65567.5 Performance <= -9343
 c26: 897 a0_25 + 17916 a1_25 + 9228 a2_25 - 65567.5 Performance <= -10101
 c27: 897 a0_26 + 17916 a1_26 + 9228 a2_26 - 65567.5 Performance <= -8524
 c28: 897 a0_27 + 17916 a1_27 + 9228 a2_27 - 65567.5 Performance <= -4614
 c29: 897 a0_28 + 17916 a1_28 + 9228 a2_28 - 65567.5 Performance <= -47296
 c30: 897 a0_29 + 17916 a1_29 + 9228 a2_29 - 65567.5 Performance <= -46499
 c31: - a0_0 + a0_1  = 0
 c32: a0_0 - a0_1 - a0_2 - a0_3 - a0_4 + a0_10 + a0_13 + a0_28  = 0
 c33: - a0_5 - a0_6 + a0_14 + a0_21  = 0
 c34: - a0_7 - a0_8 - a0_9 + a0_16 + a0_23 + a0_26  = 0
 c35: a0_2 - a0_10 - a0_11 - a0_12 + a0_17 + a0_19  = 0
 c36: a0_3 + a0_5 - a0_13 - a0_14 - a0_15 + a0_18  = 0
 c37: a0_7 + a0_11 + a0_15 - a0_16 - a0_17 - a0_18  = 0
 c38: a0_12 - a0_19 - a0_20 + a0_24  = 0
 c39: a0_6 - a0_21 - a0_22 + a0_29  = 0
 c40: a0_8 + a0_20 - a0_23 - a0_24 - a0_25 + a0_27  = 1
 c41: a0_9 + a0_25 - a0_26 - a0_27  = 0
 c42: a0_4 + a0_22 - a0_28 - a0_29  = -1
 c43: - a1_0 + a1_1  = 0
 c44: a1_0 - a1_1 - a1_2 - a1_3 - a1_4 + a1_10 + a1_13 + a1_28  = 1
 c45: - a1_5 - a1_6 + a1_14 + a1_21  = 0
 c46: - a1_7 - a1_8 - a1_9 + a1_16 + a1_23 + a1_26  = 0
 c47: a1_2 - a1_10 - a1_11 - a1_12 + a1_17 + a1_19  = 0
 c48: a1_3 + a1_5 - a1_13 - a1_14 - a1_15 + a1_18  = 0
 c49: a1_7 + a1_11 + a1_15 - a1_16 - a1_17 - a1_18  = 0
 c50: a1_12 - a1_19 - a1_20 + a1_24  = 0
 c51: a1_6 - a1_21 - a1_22 + a1_29  = 0
 c52: a1_8 + a1_20 - a1_23 - a1_24 - a1_25 + a1_27  = 0
 c53: a1_9 + a1_25 - a1_26 - a1_27  = 0
 c54: a1_4 + a1_22 - a1_28 - a1_29  = -1
 c55: - a2_0 + a2_1  = 0
 c56: a2_0 - a2_1 - a2_2 - a2_3 - a2_4 + a2_10 + a2_13 + a2_28  = 0
 c57: - a2_5 - a2_6 + a2_14 + a2_21  = 0
 c58: - a2_7 - a2_8 - a2_9 + a2_16 + a2_23 + a2_26  = 0
 c59: a2_2 - a2_10 - a2_11 - a2_12 + a2_17 + a2_19  = 0
 c60: a2_3 + a2_5 - a2_13 - a2_14 - a2_15 + a2_18  = 0
 c61: a2_7 + a2_11 + a2_15 - a2_16 - a2_17 - a2_18  = 0
 c62: a2_12 - a2_19 - a2_20 + a2_24  = 1
 c63: a2_6 - a2_21 - a2_22 + a2_29  = -1
 c64: a2_8 + a2_20 - a2_23 - a2_24 - a2_25 + a2_27  = 0
 c65: a2_9 + a2_25 - a2_26 - a2_27  = 0
 c66: a2_4 + a2_22 - a2_28 - a2_29  = 0
End
